
(set-logic ALL) 

(declare-datatype MyList ((Nil) (Cons (head Real) (tail MyList)) )) 
(declare-fun l0 () MyList) 
(declare-fun l1 () MyList) 
(declare-fun l2 () MyList) 
(declare-fun l3 () MyList) 
(declare-fun i0 () Real) 
(declare-fun i1 () Real) 
(assert (= l2 l2) )
(assert (is-Nil Nil) )
(assert (is-Nil Nil) )
(assert (is-Nil l1) )
(assert (or (= l1 l0) (= l2 Nil) (is-Nil Nil) (= l3 l3)) )
(assert (or (= l0 Nil) (= l3 Nil) (= l0 l0) (= l0 l0)) )
(assert (or (= l1 l3) (= l3 l0) (is-Cons Nil) (is-Cons Nil)) )
(assert (is-Cons Nil) )
(check-sat)
